; SMT 2
(set-info :source "Generated by CBMC 5.3")
(set-option :produce-models true)
(set-logic QF_AUFBV)

; set_to true (equal)
(define-fun |__CPROVER_dead_object#1| () (_ BitVec 64) (_ bv0 64))

; set_to true (equal)
(define-fun |__CPROVER_deallocated#1| () (_ BitVec 64) (_ bv0 64))

; set_to true (equal)
(define-fun |__CPROVER_malloc_is_new_array#1| () Bool false)

; set_to true (equal)
(define-fun |__CPROVER_malloc_object#1| () (_ BitVec 64) (_ bv0 64))

; set_to true (equal)
(define-fun |__CPROVER_malloc_size#1| () (_ BitVec 64) (_ bv0 64))

; set_to true (equal)
(define-fun |__CPROVER_memory_leak#1| () (_ BitVec 64) (_ bv0 64))

; set_to true (equal)
(define-fun |__CPROVER_next_thread_id#1| () (_ BitVec 64) (_ bv0 64))

; set_to true (equal)
(define-fun |__CPROVER_pipe_count#1| () (_ BitVec 32) (_ bv0 32))

; set_to true (equal)
(define-fun |__CPROVER_rounding_mode!0#1| () (_ BitVec 32) (_ bv0 32))

; set_to true (equal)
(define-fun |__CPROVER_thread_id!0#1| () (_ BitVec 64) (_ bv0 64))

; the following is a substitute for lambda i. x
(declare-fun array_of.0 () (Array (_ BitVec 64) (_ BitVec 1)))
; set_to true (equal)
(define-fun |__CPROVER_threads_exited#1| () (Array (_ BitVec 64) (_ BitVec 1)) array_of.0)

; the following is a substitute for an array constructor
(declare-fun array.1 () (Array (_ BitVec 64) (_ BitVec 32)))
(assert (= (select array.1 (_ bv0 64)) (_ bv2 32)))
(assert (= (select array.1 (_ bv1 64)) (_ bv3 32)))
(assert (= (select array.1 (_ bv2 64)) (_ bv5 32)))
(assert (= (select array.1 (_ bv3 64)) (_ bv7 32)))
(assert (= (select array.1 (_ bv4 64)) (_ bv11 32)))
(assert (= (select array.1 (_ bv5 64)) (_ bv13 32)))
(assert (= (select array.1 (_ bv6 64)) (_ bv17 32)))
(assert (= (select array.1 (_ bv7 64)) (_ bv19 32)))
; set_to true (equal)
(define-fun |primes#1| () (Array (_ BitVec 64) (_ BitVec 32)) array.1)

; find_symbols
(declare-fun |main::1::x!0@1#1| () (_ BitVec 32))
; set_to true (equal)
(define-fun |client::x!0@1#1| () (_ BitVec 32) |main::1::x!0@1#1|)

; set_to true (equal)
(define-fun |lib::x!0@1#1| () (_ BitVec 32) |client::x!0@1#1|)

; set_to true (equal)
(define-fun |lib::b!0@1#1| () (_ BitVec 32) (_ bv0 32))

; set_to true (equal)
(define-fun |lib#return_value!0#1| () (_ BitVec 32) (_ bv0 32))

; find_symbols
(declare-fun |lib::1::2::1::i!0@1#0| () (_ BitVec 32))
; set_to true (equal)
(define-fun |lib::1::2::1::i!0@1#3| () (_ BitVec 32) |lib::1::2::1::i!0@1#0|)

; find_symbols
(declare-fun |lib::1::2::1::1::mod!0@1#0| () (_ BitVec 32))
; set_to true (equal)
(define-fun |lib::1::2::1::1::mod!0@1#3| () (_ BitVec 32) |lib::1::2::1::1::mod!0@1#0|)

; set_to true (equal)
(define-fun |client::$tmp::return_value_lib$1!0@1#2| () (_ BitVec 32) (_ bv0 32))

; set_to true (equal)
(define-fun |client#return_value!0#1| () (_ BitVec 32) (_ bv0 32))

; find_symbols
(declare-fun |client::$tmp::return_value_lib$1!0@1#3| () (_ BitVec 32))
; set_to true (equal)
(define-fun |client::$tmp::return_value_lib$1!0@1#5| () (_ BitVec 32) |client::$tmp::return_value_lib$1!0@1#3|)

; set_to true (equal)
(define-fun |main::$tmp::return_value_client$1!0@1#2| () (_ BitVec 32) (_ bv0 32))

; convert
(define-fun |B0| () Bool (= |main::1::x!0@1#1| |main::1::x!0@1#1|))

; find_symbols
(declare-fun |main::$tmp::return_value_client$1!0@1#1| () (_ BitVec 32))
; convert
(define-fun |B1| () Bool (= |main::$tmp::return_value_client$1!0@1#1| |main::$tmp::return_value_client$1!0@1#1|))

; find_symbols
(declare-fun |client::$tmp::return_value_lib$1!0@1#1| () (_ BitVec 32))
; convert
(define-fun |B2| () Bool (= |client::$tmp::return_value_lib$1!0@1#1| |client::$tmp::return_value_lib$1!0@1#1|))

; set_to false
(assert (not (= |main::1::x!0@1#1| (_ bv0 32))))

(check-sat)

(get-value (|B0|))
(get-value (|B1|))
(get-value (|B2|))
(get-value (|__CPROVER_dead_object#1|))
(get-value (|__CPROVER_deallocated#1|))
(get-value (|__CPROVER_malloc_is_new_array#1|))
(get-value (|__CPROVER_malloc_object#1|))
(get-value (|__CPROVER_malloc_size#1|))
(get-value (|__CPROVER_memory_leak#1|))
(get-value (|__CPROVER_next_thread_id#1|))
(get-value (|__CPROVER_pipe_count#1|))
(get-value (|__CPROVER_rounding_mode!0#1|))
(get-value (|__CPROVER_thread_id!0#1|))
(get-value (|__CPROVER_threads_exited#1|))
(get-value (|client#return_value!0#1|))
(get-value (|client::$tmp::return_value_lib$1!0@1#1|))
(get-value (|client::$tmp::return_value_lib$1!0@1#2|))
(get-value (|client::$tmp::return_value_lib$1!0@1#3|))
(get-value (|client::$tmp::return_value_lib$1!0@1#5|))
(get-value (|client::x!0@1#1|))
(get-value (|lib#return_value!0#1|))
(get-value (|lib::1::2::1::1::mod!0@1#0|))
(get-value (|lib::1::2::1::1::mod!0@1#3|))
(get-value (|lib::1::2::1::i!0@1#0|))
(get-value (|lib::1::2::1::i!0@1#3|))
(get-value (|lib::b!0@1#1|))
(get-value (|lib::x!0@1#1|))
(get-value (|main::$tmp::return_value_client$1!0@1#1|))
(get-value (|main::$tmp::return_value_client$1!0@1#2|))
(get-value (|main::1::x!0@1#1|))
(get-value (|primes#1|))

(exit)
; end of SMT2 file
